\ Model _copy
\ LP format - for model browsing. Use MPS format to capture full model detail.
Minimize
 
Subject To
 equilibrium: - C21184 + C27904 - C34624 = -10468.71428571429
 equilibrium: - C21490 + C28210 - C34930 = -5996.945366488509
 equilibrium: - C21682 + C28402 - C35122 = -8695.274993730331
 equilibrium: - C22432 + C29152 - C35872 = -8307.787267080745
 equilibrium: - C22711 + C29431 - C36151 = -7196.618303571428
 equilibrium: - C22760 + C29480 - C36200 = -5240.012729332811
 equilibrium: - C23144 + C29864 - C36584 = -9054.791449968723
 equilibrium: - C23351 + C30071 - C36791 = -10249.49359722018
 equilibrium: - C23667 + C30387 - C37107 = -7366.439732142857
 equilibrium: - C24023 + C30743 - C37463 = -12439.00705712216
 equilibrium: - C24288 + C31008 - C37728 = -6666.608792481404
 equilibrium: - C24330 + C31050 - C37770 = -9467.95566502463
 equilibrium: - C26180 + C32900 - C39620 = -8564.254166498462
 equilibrium: - C26259 + C32979 - C39699 = -8729.324534161491
 equilibrium: - C26487 + C33207 - C39927 = -8450.271982005275
 equilibrium: - C26532 + C33252 - C39972 = -10779.0989010989
 equilibrium: - C26904 + C33624 - C40344 = -12434.61734693878
 Pnet_cost: C1455 - 0.415 C21755 = 0
 Ccap1_2: C10782 - 10.70666666666667 C24362 + 2676.666666666667 C121646
   >= 0
 Ccap1_3: - C11139 + C20206 >= 0
 Ccap1_2: C11718 - 10.70666666666667 C25298 + 2676.666666666667 C121646
   >= 0
 Ccap1_2: C12409 - 10.70666666666667 C25989 + 2676.666666666667 C121646
   >= 0
 Ccap2_2: C13919 - 5.353333333333333 C20779 + 1472.166666666667 C121646
   >= 0
 Ccap2_3: - C14349 + C20239 >= 0
 Ccap2_2: C15436 - 5.353333333333333 C22296 + 1472.166666666667 C121646
   >= 0
 Ccap2_3: - C18897 + C20286 >= 0
 Pess_3: C45108 + C51828 <= 1
 ESS_soc_4: C54165 - 0.1 C121568 >= 0
 ESS_soc_4: C55316 - 0.1 C121568 >= 0
 ESS_soc_3: C55364 - 0.9 C121568 <= 0
 ESS_soc_4: C55453 - 0.1 C121568 >= 0
 ESS_soc_4: C55787 - 0.1 C121568 >= 0
 ESS_soc_4: C56119 - 0.1 C121568 >= 0
 ESS_soc_4: C56932 - 0.1 C121568 >= 0
 ESS_soc_4: C57592 - 0.1 C121568 >= 0
 ESS_soc_4: C57704 - 0.1 C121568 >= 0
 ESS_soc_4: C58396 - 0.1 C121568 >= 0
 ESS_soc_4: C59359 - 0.1 C121568 >= 0
 ESS_soc_4: C59739 - 0.1 C121568 >= 0
 ESS_soc_4: C60587 - 0.1 C121568 >= 0
 U_spr_11: C74110 = 0
 U_spr_7: C75012 = 0
 U_spr_8: C83557 = 0
 U_spr_5: C63783 = 0
 U_spr_9: C63980 = 0
 U_spr_7: C79300 = 0
 U_spr_5: C65917 = 0
 U_spr_7: C80558 = 0
 U_spr_5: C67200 = 0
 U_SpR_fail: 0.16151623193845 C83756 + 0.16151623193845 C83757
   + 0.16151623193845 C83758 + 0.16151623193845 C83759
   + 0.16151623193845 C83760 + 0.16151623193845 C83761
   + 0.16151623193845 C83762 + 0.16151623193845 C83763
   + 0.16151623193845 C83764 + 0.16151623193845 C83765
   + 0.16151623193845 C83766 + 0.16151623193845 C83767
   + 0.16151623193845 C83768 + 0.16151623193845 C83769
   + 0.16151623193845 C83770 + 0.16151623193845 C83771
   + 0.16151623193845 C83772 + 0.16151623193845 C83773
   + 0.16151623193845 C83774 + 0.16151623193845 C83775
   + 0.16151623193845 C83776 + 0.16151623193845 C83777
   + 0.16151623193845 C83778 + 0.16151623193845 C83779
   + 0.16151623193845 C83780 + 0.16151623193845 C83781
   + 0.16151623193845 C83782 + 0.16151623193845 C83783
   + 0.16151623193845 C83784 + 0.16151623193845 C83785
   + 0.16151623193845 C83786 + 0.16151623193845 C83787
   + 0.16151623193845 C83788 + 0.16151623193845 C83789
   + 0.16151623193845 C83790 + 0.16151623193845 C83791
   + 0.16151623193845 C83792 + 0.16151623193845 C83793
   + 0.16151623193845 C83794 + 0.16151623193845 C83795
   + 0.16151623193845 C83796 + 0.16151623193845 C83797
   + 0.16151623193845 C83798 + 0.16151623193845 C83799
   + 0.16151623193845 C83800 + 0.16151623193845 C83801
   + 0.16151623193845 C83802 + 0.16151623193845 C83803
   + 0.16151623193845 C83804 + 0.16151623193845 C83805
   + 0.16151623193845 C83806 + 0.16151623193845 C83807
   + 0.16151623193845 C83808 + 0.16151623193845 C83809
   + 0.16151623193845 C83810 + 0.16151623193845 C83811
   + 0.16151623193845 C83812 + 0.16151623193845 C83813
   + 0.16151623193845 C83814 + 0.16151623193845 C83815
   + 0.16151623193845 C83816 + 0.16151623193845 C83817
   + 0.16151623193845 C83818 + 0.16151623193845 C83819
   + 0.16151623193845 C83820 + 0.16151623193845 C83821
   + 0.16151623193845 C83822 + 0.16151623193845 C83823
   + 0.16151623193845 C83824 + 0.16151623193845 C83825
   + 0.16151623193845 C83826 + 0.16151623193845 C83827
   + 0.16151623193845 C83828 + 0.16151623193845 C83829
   + 0.16151623193845 C83830 + 0.16151623193845 C83831
   + 0.16151623193845 C83832 + 0.16151623193845 C83833
   + 0.16151623193845 C83834 + 0.16151623193845 C83835
   + 0.16151623193845 C83836 + 0.16151623193845 C83837
   + 0.16151623193845 C83838 + 0.16151623193845 C83839
   + 0.16151623193845 C83840 + 0.16151623193845 C83841
   + 0.16151623193845 C83842 + 0.16151623193845 C83843
   + 0.16151623193845 C83844 + 0.16151623193845 C83845
   + 0.16151623193845 C83846 + 0.16151623193845 C83847
   + 0.16151623193845 C83848 + 0.16151623193845 C83849
   + 0.16151623193845 C83850 + 0.16151623193845 C83851 - C121607 = 0
 U_SpR_fail: 0.3472861700131357 C86540 + 0.3472861700131357 C86541
   + 0.3472861700131357 C86542 + 0.3472861700131357 C86543
   + 0.3472861700131357 C86544 + 0.3472861700131357 C86545
   + 0.3472861700131357 C86546 + 0.3472861700131357 C86547
   + 0.3472861700131357 C86548 + 0.3472861700131357 C86549
   + 0.3472861700131357 C86550 + 0.3472861700131357 C86551
   + 0.3472861700131357 C86552 + 0.3472861700131357 C86553
   + 0.3472861700131357 C86554 + 0.3472861700131357 C86555
   + 0.3472861700131357 C86556 + 0.3472861700131357 C86557
   + 0.3472861700131357 C86558 + 0.3472861700131357 C86559
   + 0.3472861700131357 C86560 + 0.3472861700131357 C86561
   + 0.3472861700131357 C86562 + 0.3472861700131357 C86563
   + 0.3472861700131357 C86564 + 0.3472861700131357 C86565
   + 0.3472861700131357 C86566 + 0.3472861700131357 C86567
   + 0.3472861700131357 C86568 + 0.3472861700131357 C86569
   + 0.3472861700131357 C86570 + 0.3472861700131357 C86571
   + 0.3472861700131357 C86572 + 0.3472861700131357 C86573
   + 0.3472861700131357 C86574 + 0.3472861700131357 C86575
   + 0.3472861700131357 C86576 + 0.3472861700131357 C86577
   + 0.3472861700131357 C86578 + 0.3472861700131357 C86579
   + 0.3472861700131357 C86580 + 0.3472861700131357 C86581
   + 0.3472861700131357 C86582 + 0.3472861700131357 C86583
   + 0.3472861700131357 C86584 + 0.3472861700131357 C86585
   + 0.3472861700131357 C86586 + 0.3472861700131357 C86587
   + 0.3472861700131357 C86588 + 0.3472861700131357 C86589
   + 0.3472861700131357 C86590 + 0.3472861700131357 C86591
   + 0.3472861700131357 C86592 + 0.3472861700131357 C86593
   + 0.3472861700131357 C86594 + 0.3472861700131357 C86595
   + 0.3472861700131357 C86596 + 0.3472861700131357 C86597
   + 0.3472861700131357 C86598 + 0.3472861700131357 C86599
   + 0.3472861700131357 C86600 + 0.3472861700131357 C86601
   + 0.3472861700131357 C86602 + 0.3472861700131357 C86603
   + 0.3472861700131357 C86604 + 0.3472861700131357 C86605
   + 0.3472861700131357 C86606 + 0.3472861700131357 C86607
   + 0.3472861700131357 C86608 + 0.3472861700131357 C86609
   + 0.3472861700131357 C86610 + 0.3472861700131357 C86611
   + 0.3472861700131357 C86612 + 0.3472861700131357 C86613
   + 0.3472861700131357 C86614 + 0.3472861700131357 C86615
   + 0.3472861700131357 C86616 + 0.3472861700131357 C86617
   + 0.3472861700131357 C86618 + 0.3472861700131357 C86619
   + 0.3472861700131357 C86620 + 0.3472861700131357 C86621
   + 0.3472861700131357 C86622 + 0.3472861700131357 C86623
   + 0.3472861700131357 C86624 + 0.3472861700131357 C86625
   + 0.3472861700131357 C86626 + 0.3472861700131357 C86627
   + 0.3472861700131357 C86628 + 0.3472861700131357 C86629
   + 0.3472861700131357 C86630 + 0.3472861700131357 C86631
   + 0.3472861700131357 C86632 + 0.3472861700131357 C86633
   + 0.3472861700131357 C86634 + 0.3472861700131357 C86635 - C121636 = 0
 U_spr_4: - 1e+09 C83632 + [ 0.001 C23152 * C121561
   - 0.001 C121409 * C121561 ] <= -0.7
 U_spr_2: - 1e+09 C70388 + [ 0.001 C23348 * C121562
   - 0.001 C121411 * C121562 ] <= -0.95
 U_spr_4: - 1e+09 C83828 + [ 0.001 C23348 * C121562
   - 0.001 C121411 * C121562 ] <= -0.7
 U_spr_2: - 1e+09 C73169 + [ 0.001 C26129 * C121561
   - 0.001 C121440 * C121561 ] <= -0.95
 SpR_70_quality_execution: C110721 + [ - 5700 C83841 * C121541 ] = 0
 SpR_70_quality_execution: C110725 + [ - 5700 C83845 * C121542 ] = 0
 SpR_70_quality_execution: C110729 + [ - 5700 C83849 * C121543 ] = 0
Bounds
 C1455 free
 C10782 free
 C11139 free
 C11718 free
 C12409 free
 C13919 free
 C14349 free
 C15436 free
 C18897 free
 C20206 free
 C20239 free
 C20286 free
 C20779 free
 C21184 free
 C21490 free
 C21682 free
 C21755 free
 C22296 free
 C22432 free
 C22711 free
 C22760 free
 C23144 free
 C23152 free
 C23348 free
 C23351 free
 C23667 free
 C24023 free
 C24288 free
 C24330 free
 C24362 free
 C25298 free
 C25989 free
 C26129 free
 C26180 free
 C26259 free
 C26487 free
 C26532 free
 C26904 free
 C27904 free
 C28210 free
 C28402 free
 C29152 free
 C29431 free
 C29480 free
 C29864 free
 C30071 free
 C30387 free
 C30743 free
 C31008 free
 C31050 free
 C32900 free
 C32979 free
 C33207 free
 C33252 free
 C33624 free
 C34624 free
 C34930 free
 C35122 free
 C35872 free
 C36151 free
 C36200 free
 C36584 free
 C36791 free
 C37107 free
 C37463 free
 C37728 free
 C37770 free
 C39620 free
 C39699 free
 C39927 free
 C39972 free
 C40344 free
 C54165 free
 C55316 free
 C55364 free
 C55453 free
 C55787 free
 C56119 free
 C56932 free
 C57592 free
 C57704 free
 C58396 free
 C59359 free
 C59739 free
 C60587 free
 C110721 free
 C110725 free
 C110729 free
 C121409 free
 C121411 free
 C121440 free
 C121541 free
 C121542 free
 C121543 free
 C121561 free
 C121562 free
 C121568 free
 C121646 free
Binaries
 C45108 C51828 C63783 C63980 C65917 C67200 C70388 C73169 C74110 C75012
 C79300 C80558 C83557 C83632 C83756 C83757 C83758 C83759 C83760 C83761
 C83762 C83763 C83764 C83765 C83766 C83767 C83768 C83769 C83770 C83771
 C83772 C83773 C83774 C83775 C83776 C83777 C83778 C83779 C83780 C83781
 C83782 C83783 C83784 C83785 C83786 C83787 C83788 C83789 C83790 C83791
 C83792 C83793 C83794 C83795 C83796 C83797 C83798 C83799 C83800 C83801
 C83802 C83803 C83804 C83805 C83806 C83807 C83808 C83809 C83810 C83811
 C83812 C83813 C83814 C83815 C83816 C83817 C83818 C83819 C83820 C83821
 C83822 C83823 C83824 C83825 C83826 C83827 C83828 C83829 C83830 C83831
 C83832 C83833 C83834 C83835 C83836 C83837 C83838 C83839 C83840 C83841
 C83842 C83843 C83844 C83845 C83846 C83847 C83848 C83849 C83850 C83851
 C86540 C86541 C86542 C86543 C86544 C86545 C86546 C86547 C86548 C86549
 C86550 C86551 C86552 C86553 C86554 C86555 C86556 C86557 C86558 C86559
 C86560 C86561 C86562 C86563 C86564 C86565 C86566 C86567 C86568 C86569
 C86570 C86571 C86572 C86573 C86574 C86575 C86576 C86577 C86578 C86579
 C86580 C86581 C86582 C86583 C86584 C86585 C86586 C86587 C86588 C86589
 C86590 C86591 C86592 C86593 C86594 C86595 C86596 C86597 C86598 C86599
 C86600 C86601 C86602 C86603 C86604 C86605 C86606 C86607 C86608 C86609
 C86610 C86611 C86612 C86613 C86614 C86615 C86616 C86617 C86618 C86619
 C86620 C86621 C86622 C86623 C86624 C86625 C86626 C86627 C86628 C86629
 C86630 C86631 C86632 C86633 C86634 C86635 C121607 C121636
Generals
 C121541 C121542 C121543 C121568 C121646
End
